182 5
10 10 10 10 10 

0 0 0 0 0 0 1 2 
0 0 0 0 0 0 5 3 5 6 11 12 
9 0 0 0 1 0 2 10 4 
5 0 0 0 3 0 2 8 7 
1 0 0 0 4 0 1 9 
8 0 0 0 1 0 1 7 
5 0 0 0 1 0 1 13 
6 0 0 0 3 0 1 13 
8 0 0 0 4 0 1 13 
6 0 0 0 3 0 1 13 
6 0 0 0 1 0 1 13 
8 0 0 0 4 0 1 13 
0 0 0 0 0 0 2 14 26 
0 0 0 0 0 0 5 15 16 18 23 24 
8 0 0 0 0 1 2 20 17 
5 0 0 0 0 3 3 22 19 130 
2 0 0 0 0 3 2 22 21 
3 0 0 0 0 2 2 21 20 
8 0 0 0 0 3 1 20 
8 0 0 0 0 1 1 25 
10 0 0 0 0 3 1 25 
8 0 0 0 0 2 1 25 
10 0 0 0 0 6 1 25 
1 0 0 0 0 1 1 25 
0 0 0 0 0 0 2 48 60 
0 0 0 0 0 0 6 27 28 29 30 31 32 
1 0 0 1 0 1 5 41 37 35 34 33 
3 0 0 2 0 4 4 38 37 36 35 
10 0 0 3 0 2 3 37 34 33 
2 0 0 2 0 1 3 38 37 33 
8 0 0 2 0 4 5 46 45 44 38 36 
1 0 0 5 0 2 2 37 33 
3 0 0 2 0 2 6 46 45 44 40 39 175 
2 0 0 3 0 1 3 45 44 38 
2 0 0 1 0 5 3 46 44 39 
6 0 0 5 0 3 2 40 39 
1 0 0 3 0 3 3 45 43 42 
3 0 0 2 0 3 1 39 
1 0 0 2 0 2 2 43 42 
8 0 0 4 0 1 2 43 42 
3 0 0 2 0 3 2 44 42 
8 0 0 1 0 3 1 47 
8 0 0 4 0 2 1 47 
5 0 0 3 0 2 1 47 
10 0 0 1 0 2 1 47 
10 0 0 2 0 4 1 47 
0 0 0 0 0 0 1 72 
0 0 0 0 0 0 5 49 50 51 53 58 
3 0 1 0 0 0 3 57 55 52 
7 0 1 0 0 0 3 57 56 54 
5 0 5 0 0 0 2 56 54 
3 0 3 0 0 0 1 54 
4 0 3 0 0 0 1 55 
1 0 2 0 0 0 1 59 
1 0 1 0 0 0 1 59 
4 0 2 0 0 0 1 59 
8 0 4 0 0 0 2 59 86 
2 0 3 0 0 0 1 59 
0 0 0 0 0 0 1 72 
0 0 0 0 0 0 6 61 63 67 68 69 70 
4 0 1 0 0 0 2 66 62 
2 0 3 0 0 0 2 65 64 
5 0 3 0 0 0 2 65 64 
3 0 4 0 0 0 1 71 
3 0 3 0 0 0 1 71 
8 0 1 0 0 0 1 71 
9 0 3 0 0 0 2 71 159 
9 0 3 0 0 0 1 71 
1 0 3 0 0 0 1 71 
3 0 1 0 0 0 1 71 
0 0 0 0 0 0 1 72 
0 0 0 0 0 0 4 73 85 97 109 
0 0 0 0 0 0 6 74 76 77 82 83 129 
2 0 0 1 0 0 1 75 
6 0 0 3 0 0 4 81 80 79 78 
1 0 0 3 0 0 4 81 80 79 78 
1 0 0 4 0 0 4 81 80 79 78 
1 0 0 2 0 0 1 84 
10 0 0 2 0 0 1 84 
4 0 0 3 0 0 1 84 
4 0 0 2 0 0 1 84 
4 0 0 3 0 0 1 84 
8 0 0 2 0 0 1 84 
0 0 0 0 0 0 1 121 
0 0 0 0 0 0 5 86 87 89 90 95 
3 0 0 0 1 0 3 94 93 88 
1 0 0 0 4 0 2 93 91 
6 0 0 0 1 0 1 91 
8 0 0 0 2 0 1 92 
6 0 0 0 2 0 1 92 
8 0 0 0 2 0 2 96 118 
4 0 0 0 4 0 1 96 
4 0 0 0 2 0 1 96 
6 0 0 0 3 0 1 96 
1 0 0 0 4 0 1 96 
0 0 0 0 0 0 1 121 
0 0 0 0 0 0 3 98 100 101 
3 0 0 1 0 0 4 106 102 99 147 
7 0 0 4 0 0 4 107 105 104 103 
6 0 0 2 0 0 4 106 105 104 103 
3 0 0 3 0 0 4 106 105 104 103 
5 0 0 2 0 0 1 103 
3 0 0 2 0 0 1 108 
4 0 0 3 0 0 1 108 
9 0 0 2 0 0 1 108 
6 0 0 4 0 0 1 108 
6 0 0 2 0 0 1 108 
0 0 0 0 0 0 1 121 
0 0 0 0 0 0 6 110 111 113 117 118 119 
6 1 0 0 0 0 2 116 114 
7 2 0 0 0 0 1 112 
10 3 0 0 0 0 1 114 
6 3 0 0 0 0 1 115 
3 2 0 0 0 0 1 120 
4 3 0 0 0 0 1 120 
10 1 0 0 0 0 1 120 
8 4 0 0 0 0 1 120 
7 4 0 0 0 0 2 120 151 
1 2 0 0 0 0 1 120 
0 0 0 0 0 0 1 121 
0 0 0 0 0 0 5 122 134 146 158 170 
0 0 0 0 0 0 5 123 124 126 127 132 
4 0 0 1 0 0 3 131 129 128 
2 0 0 2 0 0 2 128 125 
8 0 0 3 0 0 1 129 
5 0 0 3 0 0 1 130 
5 0 0 2 0 0 1 128 
3 0 0 3 0 0 2 133 171 
6 0 0 2 0 0 1 133 
10 0 0 2 0 0 1 133 
2 0 0 3 0 0 1 133 
4 0 0 4 0 0 1 133 
0 0 0 0 0 0 1 182 
0 0 0 0 0 0 5 135 137 138 143 144 
7 1 0 0 0 0 3 142 139 136 
4 2 0 0 0 0 2 141 140 
4 2 0 0 0 0 2 140 139 
1 3 0 0 0 0 1 139 
6 4 0 0 0 0 1 145 
5 2 0 0 0 0 1 145 
7 2 0 0 0 0 1 145 
1 5 0 0 0 0 1 145 
5 2 0 0 0 0 1 145 
1 2 0 0 0 0 1 145 
0 0 0 0 0 0 1 182 
0 0 0 0 0 0 5 147 148 149 150 152 
9 0 0 0 1 0 3 155 154 153 
8 0 0 0 4 0 2 155 151 
3 0 0 0 5 0 2 156 153 
8 0 0 0 2 0 1 151 
4 0 0 0 1 0 1 153 
7 0 0 0 2 0 1 154 
4 0 0 0 2 0 1 157 
9 0 0 0 2 0 1 157 
7 0 0 0 5 0 1 157 
9 0 0 0 1 0 1 157 
0 0 0 0 0 0 1 182 
0 0 0 0 0 0 6 159 161 162 166 167 168 
10 0 1 0 0 0 2 165 160 
8 0 1 0 0 0 1 163 
5 0 1 0 0 0 1 164 
9 0 4 0 0 0 1 163 
9 0 4 0 0 0 1 169 
6 0 3 0 0 0 1 169 
10 0 3 0 0 0 1 169 
3 0 3 0 0 0 1 169 
2 0 4 0 0 0 1 169 
10 0 1 0 0 0 1 169 
0 0 0 0 0 0 1 182 
0 0 0 0 0 0 4 171 172 173 174 
1 0 0 0 1 0 4 180 178 177 175 
6 0 0 0 1 0 3 178 176 175 
5 0 0 0 2 0 2 178 177 
9 0 0 0 3 0 1 176 
4 0 0 0 4 0 1 179 
1 0 0 0 4 0 1 177 
4 0 0 0 3 0 1 181 
6 0 0 0 4 0 1 181 
2 0 0 0 1 0 1 181 
1 0 0 0 2 0 1 181 
0 0 0 0 0 0 1 182 
0 0 0 0 0 0 0 
